NAME : D441-11k
COMMENT : Golden et al., 1997                     
TYPE : DCVRP               
DIMENSION :    441
EDGE_WEIGHT_TYPE : EUC_2D
CAPACITY :    900
DISTANCE :   1200
SERVICE_TIME :      0
VEHICLES :     11
NODE_COORD_TYPE : TWOD_COORDS
NODE_COORD_SECTION
    1   30.0000    0.0000
    2   29.6946    4.2694
    3   28.7848    8.4520
    4   27.2890   12.4625
    5   25.2376   16.2192
    6   22.6725   19.6458
    7   19.6458   22.6725
    8   16.2192   25.2376
    9   12.4624   27.2890
   10    8.4520   28.7848
   11    4.2694   29.6946
   12    0.0000   30.0000
   13   -4.2694   29.6946
   14   -8.4520   28.7848
   15  -12.4625   27.2890
   16  -16.2192   25.2376
   17  -19.6458   22.6725
   18  -22.6725   19.6458
   19  -25.2376   16.2192
   20  -27.2890   12.4624
   21  -28.7848    8.4520
   22  -29.6946    4.2694
   23  -30.0000    0.0000
   24  -29.6946   -4.2694
   25  -28.7848   -8.4520
   26  -27.2890  -12.4625
   27  -25.2376  -16.2192
   28  -22.6725  -19.6458
   29  -19.6458  -22.6725
   30  -16.2192  -25.2376
   31  -12.4624  -27.2890
   32   -8.4520  -28.7848
   33   -4.2694  -29.6946
   34    0.0000  -30.0000
   35    4.2694  -29.6946
   36    8.4520  -28.7848
   37   12.4625  -27.2890
   38   16.2192  -25.2376
   39   19.6458  -22.6725
   40   22.6725  -19.6458
   41   25.2376  -16.2192
   42   27.2890  -12.4624
   43   28.7848   -8.4520
   44   29.6946   -4.2694
   45   60.0000    0.0000
   46   59.3893    8.5389
   47   57.5696   16.9040
   48   54.5779   24.9249
   49   50.4752   32.4384
   50   45.3450   39.2916
   51   39.2916   45.3450
   52   32.4384   50.4752
   53   24.9249   54.5779
   54   16.9040   57.5696
   55    8.5389   59.3893
   56    0.0000   60.0000
   57   -8.5389   59.3893
   58  -16.9040   57.5696
   59  -24.9249   54.5779
   60  -32.4385   50.4752
   61  -39.2916   45.3450
   62  -45.3450   39.2916
   63  -50.4752   32.4384
   64  -54.5779   24.9249
   65  -57.5696   16.9039
   66  -59.3893    8.5389
   67  -60.0000    0.0000
   68  -59.3893   -8.5389
   69  -57.5696  -16.9040
   70  -54.5779  -24.9249
   71  -50.4752  -32.4385
   72  -45.3450  -39.2916
   73  -39.2916  -45.3450
   74  -32.4384  -50.4752
   75  -24.9249  -54.5779
   76  -16.9039  -57.5696
   77   -8.5389  -59.3893
   78    0.0000  -60.0000
   79    8.5389  -59.3893
   80   16.9040  -57.5696
   81   24.9249  -54.5779
   82   32.4385  -50.4752
   83   39.2917  -45.3450
   84   45.3450  -39.2916
   85   50.4752  -32.4384
   86   54.5779  -24.9249
   87   57.5696  -16.9039
   88   59.3893   -8.5389
   89   90.0000    0.0000
   90   89.0839   12.8083
   91   86.3544   25.3559
   92   81.8669   37.3874
   93   75.7128   48.6577
   94   68.0175   58.9375
   95   58.9375   68.0175
   96   48.6577   75.7128
   97   37.3873   81.8669
   98   25.3559   86.3544
   99   12.8083   89.0839
  100    0.0000   90.0000
  101  -12.8083   89.0839
  102  -25.3559   86.3544
  103  -37.3874   81.8669
  104  -48.6577   75.7128
  105  -58.9375   68.0175
  106  -68.0175   58.9375
  107  -75.7128   48.6577
  108  -81.8669   37.3873
  109  -86.3544   25.3559
  110  -89.0839   12.8083
  111  -90.0000    0.0000
  112  -89.0839  -12.8083
  113  -86.3544  -25.3559
  114  -81.8669  -37.3874
  115  -75.7128  -48.6577
  116  -68.0175  -58.9375
  117  -58.9375  -68.0175
  118  -48.6577  -75.7128
  119  -37.3873  -81.8669
  120  -25.3559  -86.3544
  121  -12.8083  -89.0839
  122    0.0000  -90.0000
  123   12.8083  -89.0839
  124   25.3559  -86.3544
  125   37.3874  -81.8669
  126   48.6577  -75.7128
  127   58.9375  -68.0175
  128   68.0175  -58.9375
  129   75.7128  -48.6577
  130   81.8669  -37.3873
  131   86.3544  -25.3559
  132   89.0839  -12.8083
  133  120.0000    0.0000
  134  118.7786   17.0778
  135  115.1392   33.8079
  136  109.1558   49.8498
  137  100.9504   64.8769
  138   90.6899   78.5833
  139   78.5833   90.6899
  140   64.8769  100.9504
  141   49.8498  109.1558
  142   33.8079  115.1392
  143   17.0778  118.7786
  144    0.0000  120.0000
  145  -17.0778  118.7786
  146  -33.8079  115.1392
  147  -49.8498  109.1558
  148  -64.8769  100.9504
  149  -78.5833   90.6899
  150  -90.6900   78.5833
  151 -100.9504   64.8769
  152 -109.1558   49.8498
  153 -115.1392   33.8079
  154 -118.7786   17.0778
  155 -120.0000    0.0000
  156 -118.7786  -17.0778
  157 -115.1392  -33.8079
  158 -109.1558  -49.8498
  159 -100.9504  -64.8769
  160  -90.6899  -78.5833
  161  -78.5833  -90.6900
  162  -64.8769 -100.9504
  163  -49.8498 -109.1558
  164  -33.8079 -115.1392
  165  -17.0778 -118.7786
  166    0.0000 -120.0000
  167   17.0778 -118.7786
  168   33.8079 -115.1392
  169   49.8498 -109.1558
  170   64.8769 -100.9504
  171   78.5833  -90.6899
  172   90.6900  -78.5833
  173  100.9504  -64.8769
  174  109.1558  -49.8498
  175  115.1392  -33.8079
  176  118.7786  -17.0778
  177  150.0000    0.0000
  178  148.4732   21.3472
  179  143.9240   42.2599
  180  136.4448   62.3123
  181  126.1880   81.0961
  182  113.3624   98.2291
  183   98.2291  113.3624
  184   81.0961  126.1880
  185   62.3122  136.4448
  186   42.2599  143.9240
  187   21.3472  148.4732
  188    0.0000  150.0000
  189  -21.3472  148.4732
  190  -42.2599  143.9240
  191  -62.3123  136.4448
  192  -81.0961  126.1880
  193  -98.2291  113.3624
  194 -113.3624   98.2291
  195 -126.1880   81.0961
  196 -136.4448   62.3122
  197 -143.9240   42.2599
  198 -148.4732   21.3472
  199 -150.0000    0.0000
  200 -148.4732  -21.3472
  201 -143.9239  -42.2599
  202 -136.4448  -62.3123
  203 -126.1880  -81.0961
  204 -113.3624  -98.2291
  205  -98.2291 -113.3624
  206  -81.0961 -126.1880
  207  -62.3122 -136.4448
  208  -42.2599 -143.9240
  209  -21.3472 -148.4732
  210    0.0000 -150.0000
  211   21.3472 -148.4732
  212   42.2599 -143.9239
  213   62.3123 -136.4448
  214   81.0961 -126.1880
  215   98.2291 -113.3624
  216  113.3624  -98.2291
  217  126.1880  -81.0961
  218  136.4448  -62.3122
  219  143.9240  -42.2599
  220  148.4732  -21.3472
  221  180.0000    0.0000
  222  178.1679   25.6167
  223  172.7087   50.7119
  224  163.7338   74.7747
  225  151.4256   97.3153
  226  136.0349  117.8749
  227  117.8749  136.0349
  228   97.3153  151.4256
  229   74.7747  163.7338
  230   50.7119  172.7087
  231   25.6167  178.1679
  232    0.0000  180.0000
  233  -25.6167  178.1679
  234  -50.7119  172.7087
  235  -74.7747  163.7337
  236  -97.3154  151.4256
  237 -117.8749  136.0349
  238 -136.0349  117.8749
  239 -151.4256   97.3153
  240 -163.7338   74.7747
  241 -172.7087   50.7118
  242 -178.1679   25.6167
  243 -180.0000    0.0000
  244 -178.1679  -25.6167
  245 -172.7087  -50.7119
  246 -163.7337  -74.7747
  247 -151.4256  -97.3154
  248 -136.0349 -117.8749
  249 -117.8749 -136.0349
  250  -97.3153 -151.4256
  251  -74.7747 -163.7338
  252  -50.7118 -172.7087
  253  -25.6166 -178.1679
  254    0.0000 -180.0000
  255   25.6167 -178.1679
  256   50.7119 -172.7087
  257   74.7747 -163.7337
  258   97.3154 -151.4256
  259  117.8750 -136.0349
  260  136.0349 -117.8749
  261  151.4256  -97.3153
  262  163.7338  -74.7747
  263  172.7087  -50.7118
  264  178.1679  -25.6166
  265  210.0000    0.0000
  266  207.8625   29.8861
  267  201.4935   59.1638
  268  191.0227   87.2372
  269  176.6632  113.5346
  270  158.7074  137.5208
  271  137.5208  158.7074
  272  113.5346  176.6632
  273   87.2371  191.0227
  274   59.1638  201.4935
  275   29.8861  207.8625
  276    0.0000  210.0000
  277  -29.8861  207.8625
  278  -59.1638  201.4935
  279  -87.2372  191.0227
  280 -113.5346  176.6632
  281 -137.5208  158.7074
  282 -158.7074  137.5207
  283 -176.6633  113.5346
  284 -191.0227   87.2371
  285 -201.4935   59.1638
  286 -207.8625   29.8861
  287 -210.0000    0.0000
  288 -207.8625  -29.8861
  289 -201.4935  -59.1639
  290 -191.0227  -87.2372
  291 -176.6632 -113.5346
  292 -158.7074 -137.5208
  293 -137.5207 -158.7074
  294 -113.5346 -176.6633
  295  -87.2371 -191.0227
  296  -59.1638 -201.4935
  297  -29.8861 -207.8625
  298    0.0000 -210.0000
  299   29.8861 -207.8625
  300   59.1639 -201.4935
  301   87.2372 -191.0227
  302  113.5346 -176.6632
  303  137.5208 -158.7074
  304  158.7074 -137.5207
  305  176.6633 -113.5345
  306  191.0227  -87.2371
  307  201.4935  -59.1638
  308  207.8625  -29.8861
  309  240.0000    0.0000
  310  237.5571   34.1556
  311  230.2783   67.6158
  312  218.3117   99.6996
  313  201.9008  129.7538
  314  181.3799  157.1666
  315  157.1666  181.3799
  316  129.7538  201.9008
  317   99.6996  218.3117
  318   67.6158  230.2783
  319   34.1556  237.5571
  320    0.0000  240.0000
  321  -34.1556  237.5571
  322  -67.6158  230.2783
  323  -99.6996  218.3117
  324 -129.7538  201.9008
  325 -157.1666  181.3799
  326 -181.3799  157.1666
  327 -201.9009  129.7538
  328 -218.3117   99.6996
  329 -230.2783   67.6158
  330 -237.5571   34.1555
  331 -240.0000    0.0000
  332 -237.5571  -34.1556
  333 -230.2783  -67.6158
  334 -218.3117  -99.6996
  335 -201.9008 -129.7538
  336 -181.3799 -157.1666
  337 -157.1665 -181.3799
  338 -129.7538 -201.9009
  339  -99.6996 -218.3117
  340  -67.6158 -230.2783
  341  -34.1555 -237.5571
  342    0.0000 -240.0000
  343   34.1556 -237.5571
  344   67.6158 -230.2783
  345   99.6996 -218.3117
  346  129.7538 -201.9008
  347  157.1666 -181.3799
  348  181.3799 -157.1665
  349  201.9009 -129.7538
  350  218.3117  -99.6996
  351  230.2783  -67.6158
  352  237.5572  -34.1555
  353  270.0000    0.0000
  354  267.2518   38.4250
  355  259.0631   76.0678
  356  245.6006  112.1621
  357  227.1385  145.9730
  358  204.0524  176.8124
  359  176.8124  204.0524
  360  145.9730  227.1385
  361  112.1620  245.6006
  362   76.0678  259.0631
  363   38.4250  267.2518
  364    0.0000  270.0000
  365  -38.4250  267.2518
  366  -76.0678  259.0631
  367 -112.1621  245.6006
  368 -145.9730  227.1384
  369 -176.8124  204.0524
  370 -204.0524  176.8124
  371 -227.1385  145.9730
  372 -245.6006  112.1620
  373 -259.0631   76.0678
  374 -267.2518   38.4250
  375 -270.0000    0.0000
  376 -267.2518  -38.4250
  377 -259.0631  -76.0678
  378 -245.6006 -112.1621
  379 -227.1384 -145.9730
  380 -204.0524 -176.8124
  381 -176.8124 -204.0524
  382 -145.9730 -227.1385
  383 -112.1620 -245.6006
  384  -76.0678 -259.0631
  385  -38.4250 -267.2518
  386    0.0000 -270.0000
  387   38.4250 -267.2518
  388   76.0678 -259.0631
  389  112.1621 -245.6006
  390  145.9731 -227.1384
  391  176.8124 -204.0524
  392  204.0524 -176.8124
  393  227.1385 -145.9730
  394  245.6007 -112.1620
  395  259.0631  -76.0677
  396  267.2518  -38.4250
  397  300.0000    0.0000
  398  296.9464   42.6945
  399  287.8479   84.5198
  400  272.8896  124.6245
  401  252.3761  162.1922
  402  226.7249  196.4582
  403  196.4582  226.7249
  404  162.1922  252.3761
  405  124.6245  272.8896
  406   84.5198  287.8479
  407   42.6944  296.9464
  408    0.0000  300.0000
  409  -42.6945  296.9464
  410  -84.5198  287.8479
  411 -124.6245  272.8896
  412 -162.1923  252.3761
  413 -196.4582  226.7249
  414 -226.7249  196.4582
  415 -252.3761  162.1922
  416 -272.8896  124.6245
  417 -287.8479   84.5197
  418 -296.9464   42.6944
  419 -300.0000    0.0000
  420 -296.9464  -42.6945
  421 -287.8479  -84.5198
  422 -272.8896 -124.6245
  423 -252.3760 -162.1923
  424 -226.7249 -196.4583
  425 -196.4582 -226.7249
  426 -162.1922 -252.3761
  427 -124.6245 -272.8896
  428  -84.5197 -287.8479
  429  -42.6944 -296.9464
  430    0.0000 -300.0000
  431   42.6945 -296.9464
  432   84.5198 -287.8479
  433  124.6245 -272.8896
  434  162.1923 -252.3760
  435  196.4583 -226.7248
  436  226.7249 -196.4582
  437  252.3761 -162.1922
  438  272.8896 -124.6245
  439  287.8479  -84.5197
  440  296.9464  -42.6944
  441    0.0000    0.0000
DEMAND_SECTION
    1     10
    2     30
    3     30
    4     10
    5     10
    6     30
    7     30
    8     10
    9     10
   10     30
   11     30
   12     10
   13     10
   14     30
   15     30
   16     10
   17     10
   18     30
   19     30
   20     10
   21     10
   22     30
   23     30
   24     10
   25     10
   26     30
   27     30
   28     10
   29     10
   30     30
   31     30
   32     10
   33     10
   34     30
   35     30
   36     10
   37     10
   38     30
   39     30
   40     10
   41     10
   42     30
   43     30
   44     10
   45     10
   46     30
   47     30
   48     10
   49     10
   50     30
   51     30
   52     10
   53     10
   54     30
   55     30
   56     10
   57     10
   58     30
   59     30
   60     10
   61     10
   62     30
   63     30
   64     10
   65     10
   66     30
   67     30
   68     10
   69     10
   70     30
   71     30
   72     10
   73     10
   74     30
   75     30
   76     10
   77     10
   78     30
   79     30
   80     10
   81     10
   82     30
   83     30
   84     10
   85     10
   86     30
   87     30
   88     10
   89     10
   90     30
   91     30
   92     10
   93     10
   94     30
   95     30
   96     10
   97     10
   98     30
   99     30
  100     10
  101     10
  102     30
  103     30
  104     10
  105     10
  106     30
  107     30
  108     10
  109     10
  110     30
  111     30
  112     10
  113     10
  114     30
  115     30
  116     10
  117     10
  118     30
  119     30
  120     10
  121     10
  122     30
  123     30
  124     10
  125     10
  126     30
  127     30
  128     10
  129     10
  130     30
  131     30
  132     10
  133     10
  134     30
  135     30
  136     10
  137     10
  138     30
  139     30
  140     10
  141     10
  142     30
  143     30
  144     10
  145     10
  146     30
  147     30
  148     10
  149     10
  150     30
  151     30
  152     10
  153     10
  154     30
  155     30
  156     10
  157     10
  158     30
  159     30
  160     10
  161     10
  162     30
  163     30
  164     10
  165     10
  166     30
  167     30
  168     10
  169     10
  170     30
  171     30
  172     10
  173     10
  174     30
  175     30
  176     10
  177     10
  178     30
  179     30
  180     10
  181     10
  182     30
  183     30
  184     10
  185     10
  186     30
  187     30
  188     10
  189     10
  190     30
  191     30
  192     10
  193     10
  194     30
  195     30
  196     10
  197     10
  198     30
  199     30
  200     10
  201     10
  202     30
  203     30
  204     10
  205     10
  206     30
  207     30
  208     10
  209     10
  210     30
  211     30
  212     10
  213     10
  214     30
  215     30
  216     10
  217     10
  218     30
  219     30
  220     10
  221     10
  222     30
  223     30
  224     10
  225     10
  226     30
  227     30
  228     10
  229     10
  230     30
  231     30
  232     10
  233     10
  234     30
  235     30
  236     10
  237     10
  238     30
  239     30
  240     10
  241     10
  242     30
  243     30
  244     10
  245     10
  246     30
  247     30
  248     10
  249     10
  250     30
  251     30
  252     10
  253     10
  254     30
  255     30
  256     10
  257     10
  258     30
  259     30
  260     10
  261     10
  262     30
  263     30
  264     10
  265     10
  266     30
  267     30
  268     10
  269     10
  270     30
  271     30
  272     10
  273     10
  274     30
  275     30
  276     10
  277     10
  278     30
  279     30
  280     10
  281     10
  282     30
  283     30
  284     10
  285     10
  286     30
  287     30
  288     10
  289     10
  290     30
  291     30
  292     10
  293     10
  294     30
  295     30
  296     10
  297     10
  298     30
  299     30
  300     10
  301     10
  302     30
  303     30
  304     10
  305     10
  306     30
  307     30
  308     10
  309     10
  310     30
  311     30
  312     10
  313     10
  314     30
  315     30
  316     10
  317     10
  318     30
  319     30
  320     10
  321     10
  322     30
  323     30
  324     10
  325     10
  326     30
  327     30
  328     10
  329     10
  330     30
  331     30
  332     10
  333     10
  334     30
  335     30
  336     10
  337     10
  338     30
  339     30
  340     10
  341     10
  342     30
  343     30
  344     10
  345     10
  346     30
  347     30
  348     10
  349     10
  350     30
  351     30
  352     10
  353     10
  354     30
  355     30
  356     10
  357     10
  358     30
  359     30
  360     10
  361     10
  362     30
  363     30
  364     10
  365     10
  366     30
  367     30
  368     10
  369     10
  370     30
  371     30
  372     10
  373     10
  374     30
  375     30
  376     10
  377     10
  378     30
  379     30
  380     10
  381     10
  382     30
  383     30
  384     10
  385     10
  386     30
  387     30
  388     10
  389     10
  390     30
  391     30
  392     10
  393     10
  394     30
  395     30
  396     10
  397     10
  398     30
  399     30
  400     10
  401     10
  402     30
  403     30
  404     10
  405     10
  406     30
  407     30
  408     10
  409     10
  410     30
  411     30
  412     10
  413     10
  414     30
  415     30
  416     10
  417     10
  418     30
  419     30
  420     10
  421     10
  422     30
  423     30
  424     10
  425     10
  426     30
  427     30
  428     10
  429     10
  430     30
  431     30
  432     10
  433     10
  434     30
  435     30
  436     10
  437     10
  438     30
  439     30
  440     10
  441      0
DEPOT_SECTION
  441
EOF
